c User generated cnf file
p cnf 11 33
6 -2 4 0 
8 7 -1 0 
11 7 -4 0 
10 5 -11 0 
9 -3 11 0 
6 -2 5 0 
2 -9 11 0 
6 -11 1 0 
4 5 -2 0 
9 6 -1 0 
7 9 -6 0 
8 -8 1 0 
8 11 -4 0 
10 -10 9 0 
3 5 -2 0 
7 7 -7 0 
9 -5 1 0 
4 2 -6 0 
1 9 -5 0 
8 -8 4 0 
3 6 -11 0 
11 6 -4 0 
5 1 -11 0 
8 5 -8 0 
3 7 -4 0 
1 11 -8 0 
11 10 -9 0 
7 10 -9 0 
4 6 -3 0 
2 -10 6 0 
4 6 -1 0 
4 -3 10 0 
8 -5 4 0 
